HUN,8,6,439
3,9,4,29,2,17,5,30,0,27,1,9
2,26,3,19,1,23,4,10,5,5,0,18
2,16,4,1,1,11,0,30,5,10,3,14
5,18,2,3,4,7,1,19,0,18,3,13
5,18,4,29,1,14,0,20,2,30,3,17
4,2,0,24,2,7,3,6,1,24,5,4
5,5,1,27,3,23,4,27,2,26,0,6
3,20,2,25,0,16,5,15,4,15,1,23
